NAME
ROWS
 N  OBJ
 G  c1
 G  c2
 G  c3
 G  c4
 G  c5
 G  c6
 G  c7
 G  c8
 G  c9
 G  c10
 G  c11
 G  c12
 G  c13
 G  c14
 G  c15
 G  c16
 G  c17
 G  c18
 G  c19
 G  c20
 G  c21
 G  c22
 G  c23
 G  c24
 G  c25
 G  c26
 G  c27
 G  c28
 G  c29
 G  c30
 G  c31
 G  c32
 G  c33
 G  c34
 G  c35
 G  c36
 G  c37
 G  c38
 G  c39
 G  c40
 G  c41
 G  c42
 G  c43
 G  c44
 G  c45
 G  c46
 G  c47
 G  c48
 G  c49
 G  c50
 G  c51
 G  c52
 G  c53
 G  c54
 G  c55
 G  c56
 G  c57
 G  c58
 G  c59
 G  c60
 G  c61
 G  c62
 G  c63
 G  c64
 G  c65
 G  c66
 G  c67
 G  c68
 G  c69
 G  c70
 G  c71
 G  c72
 G  c73
 G  c74
 G  c75
 G  c76
 G  c77
 G  c78
 G  c79
 G  c80
COLUMNS
    MARKER    'MARKER'                 'INTORG'
    x[1]      c1        1
    x[1]      c33       1
    x[1]      c79       1
    x[1]      OBJ       1
    x[2]      c2        1
    x[2]      c12       1
    x[2]      c18       1
    x[2]      c25       1
    x[2]      c42       1
    x[2]      OBJ       1
    x[3]      c3        1
    x[3]      c6        1
    x[3]      c9        1
    x[3]      c12       1
    x[3]      c23       1
    x[3]      c24       1
    x[3]      c65       1
    x[3]      c67       1
    x[3]      OBJ       1
    x[4]      c4        1
    x[4]      c14       1
    x[4]      c19       1
    x[4]      c20       1
    x[4]      c30       1
    x[4]      c51       1
    x[4]      c57       1
    x[4]      OBJ       1
    x[5]      c5        1
    x[5]      c18       1
    x[5]      c25       1
    x[5]      c29       1
    x[5]      c34       1
    x[5]      c48       1
    x[5]      c57       1
    x[5]      c75       1
    x[5]      OBJ       1
    x[6]      c3        1
    x[6]      c6        1
    x[6]      c37       1
    x[6]      c46       1
    x[6]      c50       1
    x[6]      c52       1
    x[6]      c55       1
    x[6]      c71       1
    x[6]      c78       1
    x[6]      OBJ       1
    x[7]      c7        1
    x[7]      c18       1
    x[7]      c21       1
    x[7]      c23       1
    x[7]      c42       1
    x[7]      c47       1
    x[7]      c50       1
    x[7]      c54       1
    x[7]      c62       1
    x[7]      c76       1
    x[7]      OBJ       1
    x[8]      c8        1
    x[8]      c22       1
    x[8]      c27       1
    x[8]      c30       1
    x[8]      c31       1
    x[8]      c32       1
    x[8]      c42       1
    x[8]      c63       1
    x[8]      c71       1
    x[8]      c75       1
    x[8]      c76       1
    x[8]      OBJ       1
    x[9]      c3        1
    x[9]      c9        1
    x[9]      c10       1
    x[9]      c14       1
    x[9]      c26       1
    x[9]      c27       1
    x[9]      c28       1
    x[9]      c29       1
    x[9]      c53       1
    x[9]      c54       1
    x[9]      OBJ       1
    x[10]     c9        1
    x[10]     c10       1
    x[10]     c57       1
    x[10]     c61       1
    x[10]     c64       1
    x[10]     c66       1
    x[10]     c69       1
    x[10]     OBJ       1
    x[11]     c11       1
    x[11]     c15       1
    x[11]     c37       1
    x[11]     c41       1
    x[11]     c53       1
    x[11]     c60       1
    x[11]     c61       1
    x[11]     c68       1
    x[11]     c73       1
    x[11]     OBJ       1
    x[12]     c2        1
    x[12]     c3        1
    x[12]     c12       1
    x[12]     c13       1
    x[12]     c16       1
    x[12]     c24       1
    x[12]     c29       1
    x[12]     c41       1
    x[12]     c42       1
    x[12]     c60       1
    x[12]     c77       1
    x[12]     OBJ       1
    x[13]     c12       1
    x[13]     c13       1
    x[13]     c26       1
    x[13]     c28       1
    x[13]     c51       1
    x[13]     c67       1
    x[13]     OBJ       1
    x[14]     c4        1
    x[14]     c9        1
    x[14]     c14       1
    x[14]     c31       1
    x[14]     c39       1
    x[14]     c40       1
    x[14]     c52       1
    x[14]     c55       1
    x[14]     c57       1
    x[14]     c70       1
    x[14]     OBJ       1
    x[15]     c11       1
    x[15]     c15       1
    x[15]     c19       1
    x[15]     c41       1
    x[15]     c49       1
    x[15]     c55       1
    x[15]     c56       1
    x[15]     c62       1
    x[15]     OBJ       1
    x[16]     c12       1
    x[16]     c16       1
    x[16]     c17       1
    x[16]     c19       1
    x[16]     c66       1
    x[16]     c77       1
    x[16]     c79       1
    x[16]     c80       1
    x[16]     OBJ       1
    x[17]     c16       1
    x[17]     c17       1
    x[17]     c25       1
    x[17]     c28       1
    x[17]     c33       1
    x[17]     c37       1
    x[17]     c39       1
    x[17]     c42       1
    x[17]     c51       1
    x[17]     c71       1
    x[17]     OBJ       1
    x[18]     c2        1
    x[18]     c5        1
    x[18]     c7        1
    x[18]     c18       1
    x[18]     c35       1
    x[18]     c55       1
    x[18]     c56       1
    x[18]     c61       1
    x[18]     c66       1
    x[18]     c77       1
    x[18]     OBJ       1
    x[19]     c4        1
    x[19]     c15       1
    x[19]     c16       1
    x[19]     c19       1
    x[19]     c40       1
    x[19]     c47       1
    x[19]     c58       1
    x[19]     c60       1
    x[19]     c66       1
    x[19]     c69       1
    x[19]     c72       1
    x[19]     OBJ       1
    x[20]     c4        1
    x[20]     c20       1
    x[20]     c28       1
    x[20]     c32       1
    x[20]     c35       1
    x[20]     c41       1
    x[20]     c48       1
    x[20]     OBJ       1
    x[21]     c7        1
    x[21]     c21       1
    x[21]     c58       1
    x[21]     c60       1
    x[21]     c74       1
    x[21]     c75       1
    x[21]     c76       1
    x[21]     OBJ       1
    x[22]     c8        1
    x[22]     c22       1
    x[22]     c38       1
    x[22]     c39       1
    x[22]     c49       1
    x[22]     c54       1
    x[22]     c61       1
    x[22]     c67       1
    x[22]     c74       1
    x[22]     OBJ       1
    x[23]     c3        1
    x[23]     c7        1
    x[23]     c23       1
    x[23]     c35       1
    x[23]     c38       1
    x[23]     c50       1
    x[23]     c73       1
    x[23]     OBJ       1
    x[24]     c3        1
    x[24]     c12       1
    x[24]     c24       1
    x[24]     c25       1
    x[24]     c54       1
    x[24]     c62       1
    x[24]     c69       1
    x[24]     OBJ       1
    x[25]     c2        1
    x[25]     c5        1
    x[25]     c17       1
    x[25]     c24       1
    x[25]     c25       1
    x[25]     c29       1
    x[25]     c47       1
    x[25]     c58       1
    x[25]     c59       1
    x[25]     c61       1
    x[25]     c66       1
    x[25]     c70       1
    x[25]     c72       1
    x[25]     c76       1
    x[25]     OBJ       1
    x[26]     c9        1
    x[26]     c13       1
    x[26]     c26       1
    x[26]     c30       1
    x[26]     c45       1
    x[26]     c58       1
    x[26]     c59       1
    x[26]     c73       1
    x[26]     OBJ       1
    x[27]     c8        1
    x[27]     c9        1
    x[27]     c27       1
    x[27]     c46       1
    x[27]     c72       1
    x[27]     OBJ       1
    x[28]     c9        1
    x[28]     c13       1
    x[28]     c17       1
    x[28]     c20       1
    x[28]     c28       1
    x[28]     c31       1
    x[28]     c46       1
    x[28]     c52       1
    x[28]     c67       1
    x[28]     OBJ       1
    x[29]     c5        1
    x[29]     c9        1
    x[29]     c12       1
    x[29]     c25       1
    x[29]     c29       1
    x[29]     c30       1
    x[29]     c31       1
    x[29]     c34       1
    x[29]     c48       1
    x[29]     c65       1
    x[29]     c76       1
    x[29]     OBJ       1
    x[30]     c4        1
    x[30]     c8        1
    x[30]     c26       1
    x[30]     c29       1
    x[30]     c30       1
    x[30]     c31       1
    x[30]     c32       1
    x[30]     c34       1
    x[30]     c40       1
    x[30]     c46       1
    x[30]     c53       1
    x[30]     c57       1
    x[30]     c66       1
    x[30]     c73       1
    x[30]     c80       1
    x[30]     OBJ       1
    x[31]     c8        1
    x[31]     c14       1
    x[31]     c28       1
    x[31]     c29       1
    x[31]     c30       1
    x[31]     c31       1
    x[31]     c42       1
    x[31]     c49       1
    x[31]     c55       1
    x[31]     c56       1
    x[31]     c58       1
    x[31]     c60       1
    x[31]     c74       1
    x[31]     OBJ       1
    x[32]     c8        1
    x[32]     c20       1
    x[32]     c30       1
    x[32]     c32       1
    x[32]     c34       1
    x[32]     c39       1
    x[32]     c43       1
    x[32]     c47       1
    x[32]     c48       1
    x[32]     c49       1
    x[32]     c58       1
    x[32]     c70       1
    x[32]     c76       1
    x[32]     OBJ       1
    x[33]     c1        1
    x[33]     c17       1
    x[33]     c33       1
    x[33]     c36       1
    x[33]     c49       1
    x[33]     c72       1
    x[33]     OBJ       1
    x[34]     c5        1
    x[34]     c29       1
    x[34]     c30       1
    x[34]     c32       1
    x[34]     c34       1
    x[34]     c42       1
    x[34]     c44       1
    x[34]     c71       1
    x[34]     c75       1
    x[34]     c76       1
    x[34]     OBJ       1
    x[35]     c18       1
    x[35]     c20       1
    x[35]     c23       1
    x[35]     c35       1
    x[35]     c52       1
    x[35]     c70       1
    x[35]     OBJ       1
    x[36]     c33       1
    x[36]     c36       1
    x[36]     c43       1
    x[36]     c44       1
    x[36]     c46       1
    x[36]     c47       1
    x[36]     c69       1
    x[36]     c74       1
    x[36]     OBJ       1
    x[37]     c6        1
    x[37]     c11       1
    x[37]     c17       1
    x[37]     c37       1
    x[37]     c47       1
    x[37]     c52       1
    x[37]     c62       1
    x[37]     OBJ       1
    x[38]     c22       1
    x[38]     c23       1
    x[38]     c38       1
    x[38]     c46       1
    x[38]     c57       1
    x[38]     c71       1
    x[38]     c72       1
    x[38]     OBJ       1
    x[39]     c14       1
    x[39]     c17       1
    x[39]     c22       1
    x[39]     c32       1
    x[39]     c39       1
    x[39]     c64       1
    x[39]     c67       1
    x[39]     c80       1
    x[39]     OBJ       1
    x[40]     c14       1
    x[40]     c19       1
    x[40]     c30       1
    x[40]     c40       1
    x[40]     c46       1
    x[40]     c48       1
    x[40]     c54       1
    x[40]     c59       1
    x[40]     c74       1
    x[40]     c80       1
    x[40]     OBJ       1
    x[41]     c11       1
    x[41]     c12       1
    x[41]     c15       1
    x[41]     c20       1
    x[41]     c41       1
    x[41]     c46       1
    x[41]     c61       1
    x[41]     OBJ       1
    x[42]     c2        1
    x[42]     c7        1
    x[42]     c8        1
    x[42]     c12       1
    x[42]     c17       1
    x[42]     c31       1
    x[42]     c34       1
    x[42]     c42       1
    x[42]     c45       1
    x[42]     c48       1
    x[42]     c69       1
    x[42]     c79       1
    x[42]     c80       1
    x[42]     OBJ       1
    x[43]     c32       1
    x[43]     c36       1
    x[43]     c43       1
    x[43]     c67       1
    x[43]     c70       1
    x[43]     c74       1
    x[43]     c76       1
    x[43]     c77       1
    x[43]     OBJ       1
    x[44]     c34       1
    x[44]     c36       1
    x[44]     c44       1
    x[44]     c47       1
    x[44]     c53       1
    x[44]     c57       1
    x[44]     c58       1
    x[44]     c60       1
    x[44]     c75       1
    x[44]     OBJ       1
    x[45]     c26       1
    x[45]     c42       1
    x[45]     c45       1
    x[45]     c55       1
    x[45]     c60       1
    x[45]     OBJ       1
    x[46]     c6        1
    x[46]     c27       1
    x[46]     c28       1
    x[46]     c30       1
    x[46]     c36       1
    x[46]     c38       1
    x[46]     c40       1
    x[46]     c41       1
    x[46]     c46       1
    x[46]     c79       1
    x[46]     OBJ       1
    x[47]     c7        1
    x[47]     c19       1
    x[47]     c25       1
    x[47]     c32       1
    x[47]     c36       1
    x[47]     c37       1
    x[47]     c44       1
    x[47]     c47       1
    x[47]     c49       1
    x[47]     c51       1
    x[47]     OBJ       1
    x[48]     c5        1
    x[48]     c20       1
    x[48]     c29       1
    x[48]     c32       1
    x[48]     c40       1
    x[48]     c42       1
    x[48]     c48       1
    x[48]     c59       1
    x[48]     c77       1
    x[48]     OBJ       1
    x[49]     c15       1
    x[49]     c22       1
    x[49]     c31       1
    x[49]     c32       1
    x[49]     c33       1
    x[49]     c47       1
    x[49]     c49       1
    x[49]     c58       1
    x[49]     c76       1
    x[49]     OBJ       1
    x[50]     c6        1
    x[50]     c7        1
    x[50]     c23       1
    x[50]     c50       1
    x[50]     c61       1
    x[50]     c64       1
    x[50]     c73       1
    x[50]     OBJ       1
    x[51]     c4        1
    x[51]     c13       1
    x[51]     c17       1
    x[51]     c47       1
    x[51]     c51       1
    x[51]     c52       1
    x[51]     c59       1
    x[51]     c75       1
    x[51]     c76       1
    x[51]     OBJ       1
    x[52]     c6        1
    x[52]     c14       1
    x[52]     c28       1
    x[52]     c35       1
    x[52]     c37       1
    x[52]     c51       1
    x[52]     c52       1
    x[52]     c54       1
    x[52]     c63       1
    x[52]     c67       1
    x[52]     c75       1
    x[52]     c76       1
    x[52]     OBJ       1
    x[53]     c9        1
    x[53]     c11       1
    x[53]     c30       1
    x[53]     c44       1
    x[53]     c53       1
    x[53]     c60       1
    x[53]     c64       1
    x[53]     OBJ       1
    x[54]     c7        1
    x[54]     c9        1
    x[54]     c22       1
    x[54]     c24       1
    x[54]     c40       1
    x[54]     c52       1
    x[54]     c54       1
    x[54]     c55       1
    x[54]     c60       1
    x[54]     c65       1
    x[54]     c76       1
    x[54]     OBJ       1
    x[55]     c6        1
    x[55]     c14       1
    x[55]     c15       1
    x[55]     c18       1
    x[55]     c31       1
    x[55]     c45       1
    x[55]     c54       1
    x[55]     c55       1
    x[55]     c58       1
    x[55]     c59       1
    x[55]     c73       1
    x[55]     OBJ       1
    x[56]     c15       1
    x[56]     c18       1
    x[56]     c31       1
    x[56]     c56       1
    x[56]     c72       1
    x[56]     c76       1
    x[56]     OBJ       1
    x[57]     c4        1
    x[57]     c5        1
    x[57]     c10       1
    x[57]     c14       1
    x[57]     c30       1
    x[57]     c38       1
    x[57]     c44       1
    x[57]     c57       1
    x[57]     c64       1
    x[57]     c70       1
    x[57]     OBJ       1
    x[58]     c19       1
    x[58]     c21       1
    x[58]     c25       1
    x[58]     c26       1
    x[58]     c31       1
    x[58]     c32       1
    x[58]     c44       1
    x[58]     c49       1
    x[58]     c55       1
    x[58]     c58       1
    x[58]     c76       1
    x[58]     c78       1
    x[58]     OBJ       1
    x[59]     c25       1
    x[59]     c26       1
    x[59]     c40       1
    x[59]     c48       1
    x[59]     c51       1
    x[59]     c55       1
    x[59]     c59       1
    x[59]     c67       1
    x[59]     c68       1
    x[59]     c74       1
    x[59]     c79       1
    x[59]     c80       1
    x[59]     OBJ       1
    x[60]     c11       1
    x[60]     c12       1
    x[60]     c19       1
    x[60]     c21       1
    x[60]     c31       1
    x[60]     c44       1
    x[60]     c45       1
    x[60]     c53       1
    x[60]     c54       1
    x[60]     c60       1
    x[60]     c64       1
    x[60]     c76       1
    x[60]     OBJ       1
    x[61]     c10       1
    x[61]     c11       1
    x[61]     c18       1
    x[61]     c22       1
    x[61]     c25       1
    x[61]     c41       1
    x[61]     c50       1
    x[61]     c61       1
    x[61]     c71       1
    x[61]     c76       1
    x[61]     c77       1
    x[61]     OBJ       1
    x[62]     c7        1
    x[62]     c15       1
    x[62]     c24       1
    x[62]     c37       1
    x[62]     c62       1
    x[62]     c76       1
    x[62]     OBJ       1
    x[63]     c8        1
    x[63]     c52       1
    x[63]     c63       1
    x[63]     c75       1
    x[63]     OBJ       1
    x[64]     c10       1
    x[64]     c39       1
    x[64]     c50       1
    x[64]     c53       1
    x[64]     c57       1
    x[64]     c60       1
    x[64]     c64       1
    x[64]     c67       1
    x[64]     c72       1
    x[64]     OBJ       1
    x[65]     c3        1
    x[65]     c29       1
    x[65]     c54       1
    x[65]     c65       1
    x[65]     c78       1
    x[65]     OBJ       1
    x[66]     c10       1
    x[66]     c16       1
    x[66]     c18       1
    x[66]     c19       1
    x[66]     c25       1
    x[66]     c30       1
    x[66]     c66       1
    x[66]     c68       1
    x[66]     c69       1
    x[66]     c72       1
    x[66]     c76       1
    x[66]     OBJ       1
    x[67]     c3        1
    x[67]     c13       1
    x[67]     c22       1
    x[67]     c28       1
    x[67]     c39       1
    x[67]     c43       1
    x[67]     c52       1
    x[67]     c59       1
    x[67]     c64       1
    x[67]     c67       1
    x[67]     c71       1
    x[67]     c75       1
    x[67]     OBJ       1
    x[68]     c11       1
    x[68]     c59       1
    x[68]     c66       1
    x[68]     c68       1
    x[68]     c70       1
    x[68]     c72       1
    x[68]     c80       1
    x[68]     OBJ       1
    x[69]     c10       1
    x[69]     c19       1
    x[69]     c24       1
    x[69]     c36       1
    x[69]     c42       1
    x[69]     c66       1
    x[69]     c69       1
    x[69]     c75       1
    x[69]     OBJ       1
    x[70]     c14       1
    x[70]     c25       1
    x[70]     c32       1
    x[70]     c35       1
    x[70]     c43       1
    x[70]     c57       1
    x[70]     c68       1
    x[70]     c70       1
    x[70]     OBJ       1
    x[71]     c6        1
    x[71]     c8        1
    x[71]     c17       1
    x[71]     c34       1
    x[71]     c38       1
    x[71]     c61       1
    x[71]     c67       1
    x[71]     c71       1
    x[71]     OBJ       1
    x[72]     c19       1
    x[72]     c25       1
    x[72]     c27       1
    x[72]     c33       1
    x[72]     c38       1
    x[72]     c56       1
    x[72]     c64       1
    x[72]     c66       1
    x[72]     c68       1
    x[72]     c72       1
    x[72]     c75       1
    x[72]     OBJ       1
    x[73]     c11       1
    x[73]     c23       1
    x[73]     c26       1
    x[73]     c30       1
    x[73]     c50       1
    x[73]     c55       1
    x[73]     c73       1
    x[73]     c80       1
    x[73]     OBJ       1
    x[74]     c21       1
    x[74]     c22       1
    x[74]     c31       1
    x[74]     c36       1
    x[74]     c40       1
    x[74]     c43       1
    x[74]     c59       1
    x[74]     c74       1
    x[74]     OBJ       1
    x[75]     c5        1
    x[75]     c8        1
    x[75]     c21       1
    x[75]     c34       1
    x[75]     c44       1
    x[75]     c51       1
    x[75]     c52       1
    x[75]     c63       1
    x[75]     c67       1
    x[75]     c69       1
    x[75]     c72       1
    x[75]     c75       1
    x[75]     OBJ       1
    x[76]     c7        1
    x[76]     c8        1
    x[76]     c21       1
    x[76]     c25       1
    x[76]     c29       1
    x[76]     c32       1
    x[76]     c34       1
    x[76]     c43       1
    x[76]     c49       1
    x[76]     c51       1
    x[76]     c52       1
    x[76]     c54       1
    x[76]     c56       1
    x[76]     c58       1
    x[76]     c60       1
    x[76]     c61       1
    x[76]     c62       1
    x[76]     c66       1
    x[76]     c76       1
    x[76]     OBJ       1
    x[77]     c12       1
    x[77]     c16       1
    x[77]     c18       1
    x[77]     c43       1
    x[77]     c48       1
    x[77]     c61       1
    x[77]     c77       1
    x[77]     OBJ       1
    x[78]     c6        1
    x[78]     c58       1
    x[78]     c65       1
    x[78]     c78       1
    x[78]     OBJ       1
    x[79]     c1        1
    x[79]     c16       1
    x[79]     c42       1
    x[79]     c46       1
    x[79]     c59       1
    x[79]     c79       1
    x[79]     c80       1
    x[79]     OBJ       1
    x[80]     c16       1
    x[80]     c30       1
    x[80]     c39       1
    x[80]     c40       1
    x[80]     c42       1
    x[80]     c59       1
    x[80]     c68       1
    x[80]     c73       1
    x[80]     c79       1
    x[80]     c80       1
    x[80]     OBJ       1
    MARKER    'MARKER'                 'INTEND'
RHS
    rhs       c1        1
    rhs       c2        1
    rhs       c3        1
    rhs       c4        1
    rhs       c5        1
    rhs       c6        1
    rhs       c7        1
    rhs       c8        1
    rhs       c9        1
    rhs       c10       1
    rhs       c11       1
    rhs       c12       1
    rhs       c13       1
    rhs       c14       1
    rhs       c15       1
    rhs       c16       1
    rhs       c17       1
    rhs       c18       1
    rhs       c19       1
    rhs       c20       1
    rhs       c21       1
    rhs       c22       1
    rhs       c23       1
    rhs       c24       1
    rhs       c25       1
    rhs       c26       1
    rhs       c27       1
    rhs       c28       1
    rhs       c29       1
    rhs       c30       1
    rhs       c31       1
    rhs       c32       1
    rhs       c33       1
    rhs       c34       1
    rhs       c35       1
    rhs       c36       1
    rhs       c37       1
    rhs       c38       1
    rhs       c39       1
    rhs       c40       1
    rhs       c41       1
    rhs       c42       1
    rhs       c43       1
    rhs       c44       1
    rhs       c45       1
    rhs       c46       1
    rhs       c47       1
    rhs       c48       1
    rhs       c49       1
    rhs       c50       1
    rhs       c51       1
    rhs       c52       1
    rhs       c53       1
    rhs       c54       1
    rhs       c55       1
    rhs       c56       1
    rhs       c57       1
    rhs       c58       1
    rhs       c59       1
    rhs       c60       1
    rhs       c61       1
    rhs       c62       1
    rhs       c63       1
    rhs       c64       1
    rhs       c65       1
    rhs       c66       1
    rhs       c67       1
    rhs       c68       1
    rhs       c69       1
    rhs       c70       1
    rhs       c71       1
    rhs       c72       1
    rhs       c73       1
    rhs       c74       1
    rhs       c75       1
    rhs       c76       1
    rhs       c77       1
    rhs       c78       1
    rhs       c79       1
    rhs       c80       1
RANGES
BOUNDS
 BV bounds    x[1]
 BV bounds    x[2]
 BV bounds    x[3]
 BV bounds    x[4]
 BV bounds    x[5]
 BV bounds    x[6]
 BV bounds    x[7]
 BV bounds    x[8]
 BV bounds    x[9]
 BV bounds    x[10]
 BV bounds    x[11]
 BV bounds    x[12]
 BV bounds    x[13]
 BV bounds    x[14]
 BV bounds    x[15]
 BV bounds    x[16]
 BV bounds    x[17]
 BV bounds    x[18]
 BV bounds    x[19]
 BV bounds    x[20]
 BV bounds    x[21]
 BV bounds    x[22]
 BV bounds    x[23]
 BV bounds    x[24]
 BV bounds    x[25]
 BV bounds    x[26]
 BV bounds    x[27]
 BV bounds    x[28]
 BV bounds    x[29]
 BV bounds    x[30]
 BV bounds    x[31]
 BV bounds    x[32]
 BV bounds    x[33]
 BV bounds    x[34]
 BV bounds    x[35]
 BV bounds    x[36]
 BV bounds    x[37]
 BV bounds    x[38]
 BV bounds    x[39]
 BV bounds    x[40]
 BV bounds    x[41]
 BV bounds    x[42]
 BV bounds    x[43]
 BV bounds    x[44]
 BV bounds    x[45]
 BV bounds    x[46]
 BV bounds    x[47]
 BV bounds    x[48]
 BV bounds    x[49]
 BV bounds    x[50]
 BV bounds    x[51]
 BV bounds    x[52]
 BV bounds    x[53]
 BV bounds    x[54]
 BV bounds    x[55]
 BV bounds    x[56]
 BV bounds    x[57]
 BV bounds    x[58]
 BV bounds    x[59]
 BV bounds    x[60]
 BV bounds    x[61]
 BV bounds    x[62]
 BV bounds    x[63]
 BV bounds    x[64]
 BV bounds    x[65]
 BV bounds    x[66]
 BV bounds    x[67]
 BV bounds    x[68]
 BV bounds    x[69]
 BV bounds    x[70]
 BV bounds    x[71]
 BV bounds    x[72]
 BV bounds    x[73]
 BV bounds    x[74]
 BV bounds    x[75]
 BV bounds    x[76]
 BV bounds    x[77]
 BV bounds    x[78]
 BV bounds    x[79]
 BV bounds    x[80]
ENDATA
